Version identifier: 22.1.1.0 | 2022-11-28 | 9160aff4d
CPXPARAM_ClockType                               1
CPXPARAM_Read_DataCheck                          1
CPXPARAM_Threads                                 1
CPXPARAM_TimeLimit                               7200
CPXPARAM_MIP_Tolerances_AbsMIPGap                0
CPXPARAM_MIP_Tolerances_MIPGap                   0
CPXPARAM_MIP_Tolerances_Integrality              0
Tried aggregator 2 times.
MIP Presolve eliminated 13250 rows and 5474 columns.
MIP Presolve modified 2732 coefficients.
Aggregator did 570 substitutions.
Reduced MIP has 3020 rows, 2090 columns, and 7750 nonzeros.
Reduced MIP has 2090 binaries, 0 generals, 0 SOSs, and 0 indicators.
Presolve time = 0.02 sec. (16.87 ticks)
Found incumbent of value 0.000000 after 0.03 sec. (19.74 ticks)
Probing time = 0.00 sec. (2.41 ticks)
Tried aggregator 1 time.
Detecting symmetries...
Reduced MIP has 3020 rows, 2090 columns, and 7750 nonzeros.
Reduced MIP has 2090 binaries, 0 generals, 0 SOSs, and 0 indicators.
Presolve time = 0.01 sec. (7.12 ticks)
Probing time = 0.00 sec. (2.37 ticks)
Clique table members: 3810.
MIP emphasis: balance optimality and feasibility.
MIP search method: dynamic search.
Parallel mode: none, using 1 thread.
Root relaxation solution time = 0.02 sec. (22.16 ticks)

        Nodes                                         Cuts/
   Node  Left     Objective  IInf  Best Integer    Best Bound    ItCnt     Gap

*     0+    0                            0.0000     2660.0000              --- 
      0     0     1330.0000   760        0.0000     1330.0000     1568     --- 
*     0     0      integral     0     1140.0000     Cuts: 210     2163    0.00%
      0     0        cutoff           1140.0000     1140.0000     2163    0.00%
Elapsed time = 0.22 sec. (146.01 ticks, tree = 0.01 MB, solutions = 2)

Zero-half cuts applied:  190

Root node processing (before b&c):
  Real time             =    0.22 sec. (146.36 ticks)
Sequential b&c:
  Real time             =    0.00 sec. (0.00 ticks)
                          ------------
Total (root+branch&cut) =    0.22 sec. (146.36 ticks)
Solution is feasible.

---------------------
@@@ MIP_optimal
>>> Benchmark mc2024_track1_180.cnf k 5 OPT 1140 TimeCost 2.503885507583618 TimeSolve 0.22695231437683105 TimeRead 0.020575761795043945 TimeTrans 2.256357431411743
